\* Probes_Placement_Model *\
Maximize
Total_Cost: 35 SDMC_0_1_0_0 + 25 SDMC_0_2_0_0 + 35 SDMC_0_2_1_0
 + 5 SDMC_0_3_0_0 + 35 SDMC_0_3_1_0 + 20 SDMC_0_4_0_0 + 35 SDMC_0_4_1_0
 + 35 SDMC_0_4_2_0 + 25 SDMC_0_4_3_0 + 10 SDMC_0_5_0_0 + 35 SDMC_0_5_1_0
 + 35 SDMC_0_5_2_0 + 35 SDMC_0_5_3_0 + 35 SDMC_0_5_4_0 + 25 SDMC_0_5_5_0
 + 25 SDMC_0_5_6_0 + 20 SDMC_0_5_7_0 + 5 SDMC_0_6_0_0 + 25 SDMC_0_6_10_0
 + 25 SDMC_0_6_11_0 + 25 SDMC_0_6_12_0 + 20 SDMC_0_6_13_0 + 20 SDMC_0_6_14_0
 + 10 SDMC_0_6_15_0 + 35 SDMC_0_6_1_0 + 35 SDMC_0_6_2_0 + 35 SDMC_0_6_3_0
 + 35 SDMC_0_6_4_0 + 35 SDMC_0_6_5_0 + 35 SDMC_0_6_6_0 + 35 SDMC_0_6_7_0
 + 35 SDMC_0_6_8_0 + 25 SDMC_0_6_9_0 + 5 SDMC_0_7_0_0 + 35 SDMC_0_7_1_0
 + 35 SDMC_0_7_2_0 + 35 SDMC_0_7_3_0 + 35 SDMC_0_7_4_0 + 25 SDMC_0_7_5_0
 + 25 SDMC_0_7_6_0 + 20 SDMC_0_7_7_0 + 70 SDMC_1_2_0_0 + 15 SDMC_1_3_0_0
 + 60 SDMC_1_4_0_0 + 70 SDMC_1_4_1_0 + 30 SDMC_1_5_0_0 + 70 SDMC_1_5_1_0
 + 70 SDMC_1_5_2_0 + 60 SDMC_1_5_3_0 + 15 SDMC_1_6_0_0 + 70 SDMC_1_6_1_0
 + 70 SDMC_1_6_2_0 + 70 SDMC_1_6_3_0 + 70 SDMC_1_6_4_0 + 60 SDMC_1_6_5_0
 + 60 SDMC_1_6_6_0 + 30 SDMC_1_6_7_0 + 15 SDMC_1_7_0_0 + 70 SDMC_1_7_1_0
 + 70 SDMC_1_7_2_0 + 60 SDMC_1_7_3_0 + 5 SDMC_2_3_0_0 + 70 SDMC_2_3_1_0
 + 80 SDMC_2_4_0_0 + 40 SDMC_2_5_0_0 + 80 SDMC_2_5_1_0 + 20 SDMC_2_6_0_0
 + 80 SDMC_2_6_1_0 + 80 SDMC_2_6_2_0 + 40 SDMC_2_6_3_0 + 20 SDMC_2_7_0_0
 + 80 SDMC_2_7_1_0 + 20 SDMC_3_4_0_0 + 15 SDMC_3_4_1_0 + 15 SDMC_3_4_2_0
 + 5 SDMC_3_4_3_0 + 10 SDMC_3_5_0_0 + 15 SDMC_3_5_1_0 + 15 SDMC_3_5_2_0
 + 15 SDMC_3_5_3_0 + 15 SDMC_3_5_4_0 + 5 SDMC_3_5_5_0 + 5 SDMC_3_5_6_0
 + 20 SDMC_3_5_7_0 + 5 SDMC_3_6_0_0 + 5 SDMC_3_6_10_0 + 5 SDMC_3_6_11_0
 + 5 SDMC_3_6_12_0 + 20 SDMC_3_6_13_0 + 20 SDMC_3_6_14_0 + 10 SDMC_3_6_15_0
 + 15 SDMC_3_6_1_0 + 15 SDMC_3_6_2_0 + 15 SDMC_3_6_3_0 + 15 SDMC_3_6_4_0
 + 15 SDMC_3_6_5_0 + 15 SDMC_3_6_6_0 + 15 SDMC_3_6_7_0 + 15 SDMC_3_6_8_0
 + 5 SDMC_3_6_9_0 + 5 SDMC_3_7_0_0 + 15 SDMC_3_7_1_0 + 15 SDMC_3_7_2_0
 + 15 SDMC_3_7_3_0 + 15 SDMC_3_7_4_0 + 5 SDMC_3_7_5_0 + 5 SDMC_3_7_6_0
 + 20 SDMC_3_7_7_0 + 50 SDMC_4_5_0_0 + 25 SDMC_4_6_0_0 + 50 SDMC_4_6_1_0
 + 35 SDMC_4_7_0_0 + 30 SDMC_5_6_0_0 + 10 SDMC_5_7_0_0 + 50 SDMC_5_7_1_0
 + 5 SDMC_6_7_0_0 + 30 SDMC_6_7_1_0 + 30 SDMC_6_7_2_0 + 25 SDMC_6_7_3_0
Subject To
Igual_Probes_'10',_'11',_'18',_'19',_'20'_0681: SDMC_0_6_8_1 - SDMC_1_6_0_0
 = 0
Igual_Probes_'10',_'11',_'18',_'19',_'20'_3681: - SDMC_1_6_0_0 + SDMC_3_6_8_1
 = 0
Igual_Probes_'10',_'11',_'18',_'19'_0541: SDMC_0_5_4_1 - SDMC_1_5_0_0 = 0
Igual_Probes_'10',_'11',_'18',_'19'_0671: SDMC_0_6_7_1 - SDMC_1_5_0_0 = 0
Igual_Probes_'10',_'11',_'18',_'19'_3541: - SDMC_1_5_0_0 + SDMC_3_5_4_1 = 0
Igual_Probes_'10',_'11',_'18',_'19'_3671: - SDMC_1_5_0_0 + SDMC_3_6_7_1 = 0
Igual_Probes_'10',_'11',_'18',_'21'_0741: SDMC_0_7_4_1 - SDMC_1_7_0_0 = 0
Igual_Probes_'10',_'11',_'18',_'21'_3741: - SDMC_1_7_0_0 + SDMC_3_7_4_1 = 0
Igual_Probes_'10',_'11',_'18'_0421: SDMC_0_4_2_1 - SDMC_1_4_0_0 = 0
Igual_Probes_'10',_'11',_'18'_0531: SDMC_0_5_3_1 - SDMC_1_4_0_0 = 0
Igual_Probes_'10',_'11',_'18'_0651: SDMC_0_6_5_1 - SDMC_1_4_0_0 = 0
Igual_Probes_'10',_'11',_'18'_0661: SDMC_0_6_6_1 - SDMC_1_4_0_0 = 0
Igual_Probes_'10',_'11',_'18'_0731: SDMC_0_7_3_1 - SDMC_1_4_0_0 = 0
Igual_Probes_'10',_'11',_'18'_3421: - SDMC_1_4_0_0 + SDMC_3_4_2_1 = 0
Igual_Probes_'10',_'11',_'18'_3531: - SDMC_1_4_0_0 + SDMC_3_5_3_1 = 0
Igual_Probes_'10',_'11',_'18'_3651: - SDMC_1_4_0_0 + SDMC_3_6_5_1 = 0
Igual_Probes_'10',_'11',_'18'_3661: - SDMC_1_4_0_0 + SDMC_3_6_6_1 = 0
Igual_Probes_'10',_'11',_'18'_3731: - SDMC_1_4_0_0 + SDMC_3_7_3_1 = 0
Igual_Probes_'10',_'11'_0211: SDMC_0_2_1_1 - SDMC_1_2_0_0 = 0
Igual_Probes_'10',_'11'_0411: SDMC_0_4_1_1 - SDMC_1_2_0_0 = 0
Igual_Probes_'10',_'11'_0511: SDMC_0_5_1_1 - SDMC_1_2_0_0 = 0
Igual_Probes_'10',_'11'_0521: SDMC_0_5_2_1 - SDMC_1_2_0_0 = 0
Igual_Probes_'10',_'11'_0611: SDMC_0_6_1_1 - SDMC_1_2_0_0 = 0
Igual_Probes_'10',_'11'_0621: SDMC_0_6_2_1 - SDMC_1_2_0_0 = 0
Igual_Probes_'10',_'11'_0631: SDMC_0_6_3_1 - SDMC_1_2_0_0 = 0
Igual_Probes_'10',_'11'_0641: SDMC_0_6_4_1 - SDMC_1_2_0_0 = 0
Igual_Probes_'10',_'11'_0711: SDMC_0_7_1_1 - SDMC_1_2_0_0 = 0
Igual_Probes_'10',_'11'_0721: SDMC_0_7_2_1 - SDMC_1_2_0_0 = 0
Igual_Probes_'10',_'11'_3411: - SDMC_1_2_0_0 + SDMC_3_4_1_1 = 0
Igual_Probes_'10',_'11'_3511: - SDMC_1_2_0_0 + SDMC_3_5_1_1 = 0
Igual_Probes_'10',_'11'_3521: - SDMC_1_2_0_0 + SDMC_3_5_2_1 = 0
Igual_Probes_'10',_'11'_3611: - SDMC_1_2_0_0 + SDMC_3_6_1_1 = 0
Igual_Probes_'10',_'11'_3621: - SDMC_1_2_0_0 + SDMC_3_6_2_1 = 0
Igual_Probes_'10',_'11'_3631: - SDMC_1_2_0_0 + SDMC_3_6_3_1 = 0
Igual_Probes_'10',_'11'_3641: - SDMC_1_2_0_0 + SDMC_3_6_4_1 = 0
Igual_Probes_'10',_'11'_3711: - SDMC_1_2_0_0 + SDMC_3_7_1_1 = 0
Igual_Probes_'10',_'11'_3721: - SDMC_1_2_0_0 + SDMC_3_7_2_1 = 0
Igual_Probes_'10',_'12'_0311: SDMC_0_3_1_1 - SDMC_1_3_0_0 = 0
Igual_Probes_'10',_'12'_2311: - SDMC_1_3_0_0 + SDMC_2_3_1_1 = 0
Igual_Probes_'11',_'18',_'19',_'20'_06121: SDMC_0_6_12_1 - SDMC_2_6_0_0 = 0
Igual_Probes_'11',_'18',_'19',_'20'_0642: SDMC_0_6_4_2 - SDMC_2_6_0_0 = 0
Igual_Probes_'11',_'18',_'19',_'20'_1641: SDMC_1_6_4_1 - SDMC_2_6_0_0 = 0
Igual_Probes_'11',_'18',_'19',_'20'_36121: - SDMC_2_6_0_0 + SDMC_3_6_12_1 = 0
Igual_Probes_'11',_'18',_'19',_'20'_3642: - SDMC_2_6_0_0 + SDMC_3_6_4_2 = 0
Igual_Probes_'11',_'18',_'19'_0522: SDMC_0_5_2_2 - SDMC_2_5_0_0 = 0
Igual_Probes_'11',_'18',_'19'_0561: SDMC_0_5_6_1 - SDMC_2_5_0_0 = 0
Igual_Probes_'11',_'18',_'19'_06111: SDMC_0_6_11_1 - SDMC_2_5_0_0 = 0
Igual_Probes_'11',_'18',_'19'_0632: SDMC_0_6_3_2 - SDMC_2_5_0_0 = 0
Igual_Probes_'11',_'18',_'19'_1521: SDMC_1_5_2_1 - SDMC_2_5_0_0 = 0
Igual_Probes_'11',_'18',_'19'_1631: SDMC_1_6_3_1 - SDMC_2_5_0_0 = 0
Igual_Probes_'11',_'18',_'19'_3522: - SDMC_2_5_0_0 + SDMC_3_5_2_2 = 0
Igual_Probes_'11',_'18',_'19'_3561: - SDMC_2_5_0_0 + SDMC_3_5_6_1 = 0
Igual_Probes_'11',_'18',_'19'_36111: - SDMC_2_5_0_0 + SDMC_3_6_11_1 = 0
Igual_Probes_'11',_'18',_'19'_3632: - SDMC_2_5_0_0 + SDMC_3_6_3_2 = 0
Igual_Probes_'11',_'18',_'21'_0722: SDMC_0_7_2_2 - SDMC_2_7_0_0 = 0
Igual_Probes_'11',_'18',_'21'_0761: SDMC_0_7_6_1 - SDMC_2_7_0_0 = 0
Igual_Probes_'11',_'18',_'21'_1721: SDMC_1_7_2_1 - SDMC_2_7_0_0 = 0
Igual_Probes_'11',_'18',_'21'_3722: - SDMC_2_7_0_0 + SDMC_3_7_2_2 = 0
Igual_Probes_'11',_'18',_'21'_3761: - SDMC_2_7_0_0 + SDMC_3_7_6_1 = 0
Igual_Probes_'11',_'18'_0412: SDMC_0_4_1_2 - SDMC_2_4_0_0 = 0
Igual_Probes_'11',_'18'_0431: SDMC_0_4_3_1 - SDMC_2_4_0_0 = 0
Igual_Probes_'11',_'18'_0512: SDMC_0_5_1_2 - SDMC_2_4_0_0 = 0
Igual_Probes_'11',_'18'_0551: SDMC_0_5_5_1 - SDMC_2_4_0_0 = 0
Igual_Probes_'11',_'18'_06101: SDMC_0_6_10_1 - SDMC_2_4_0_0 = 0
Igual_Probes_'11',_'18'_0612: SDMC_0_6_1_2 - SDMC_2_4_0_0 = 0
Igual_Probes_'11',_'18'_0622: SDMC_0_6_2_2 - SDMC_2_4_0_0 = 0
Igual_Probes_'11',_'18'_0691: SDMC_0_6_9_1 - SDMC_2_4_0_0 = 0
Igual_Probes_'11',_'18'_0712: SDMC_0_7_1_2 - SDMC_2_4_0_0 = 0
Igual_Probes_'11',_'18'_0751: SDMC_0_7_5_1 - SDMC_2_4_0_0 = 0
Igual_Probes_'11',_'18'_1411: SDMC_1_4_1_1 - SDMC_2_4_0_0 = 0
Igual_Probes_'11',_'18'_1511: SDMC_1_5_1_1 - SDMC_2_4_0_0 = 0
Igual_Probes_'11',_'18'_1611: SDMC_1_6_1_1 - SDMC_2_4_0_0 = 0
Igual_Probes_'11',_'18'_1621: SDMC_1_6_2_1 - SDMC_2_4_0_0 = 0
Igual_Probes_'11',_'18'_1711: SDMC_1_7_1_1 - SDMC_2_4_0_0 = 0
Igual_Probes_'11',_'18'_3412: - SDMC_2_4_0_0 + SDMC_3_4_1_2 = 0
Igual_Probes_'11',_'18'_3431: - SDMC_2_4_0_0 + SDMC_3_4_3_1 = 0
Igual_Probes_'11',_'18'_3512: - SDMC_2_4_0_0 + SDMC_3_5_1_2 = 0
Igual_Probes_'11',_'18'_3551: - SDMC_2_4_0_0 + SDMC_3_5_5_1 = 0
Igual_Probes_'11',_'18'_36101: - SDMC_2_4_0_0 + SDMC_3_6_10_1 = 0
Igual_Probes_'11',_'18'_3612: - SDMC_2_4_0_0 + SDMC_3_6_1_2 = 0
Igual_Probes_'11',_'18'_3622: - SDMC_2_4_0_0 + SDMC_3_6_2_2 = 0
Igual_Probes_'11',_'18'_3691: - SDMC_2_4_0_0 + SDMC_3_6_9_1 = 0
Igual_Probes_'11',_'18'_3712: - SDMC_2_4_0_0 + SDMC_3_7_1_2 = 0
Igual_Probes_'11',_'18'_3751: - SDMC_2_4_0_0 + SDMC_3_7_5_1 = 0
Igual_Probes_'18',_'19',_'20'_06102: SDMC_0_6_10_2 - SDMC_4_6_0_0 = 0
Igual_Probes_'18',_'19',_'20'_06141: SDMC_0_6_14_1 - SDMC_4_6_0_0 = 0
Igual_Probes_'18',_'19',_'20'_0623: SDMC_0_6_2_3 - SDMC_4_6_0_0 = 0
Igual_Probes_'18',_'19',_'20'_0662: SDMC_0_6_6_2 - SDMC_4_6_0_0 = 0
Igual_Probes_'18',_'19',_'20'_1622: SDMC_1_6_2_2 - SDMC_4_6_0_0 = 0
Igual_Probes_'18',_'19',_'20'_1661: SDMC_1_6_6_1 - SDMC_4_6_0_0 = 0
Igual_Probes_'18',_'19',_'20'_2621: SDMC_2_6_2_1 - SDMC_4_6_0_0 = 0
Igual_Probes_'18',_'19',_'20'_36102: SDMC_3_6_10_2 - SDMC_4_6_0_0 = 0
Igual_Probes_'18',_'19',_'20'_36141: SDMC_3_6_14_1 - SDMC_4_6_0_0 = 0
Igual_Probes_'18',_'19',_'20'_3623: SDMC_3_6_2_3 - SDMC_4_6_0_0 = 0
Igual_Probes_'18',_'19',_'20'_3662: SDMC_3_6_6_2 - SDMC_4_6_0_0 = 0
Igual_Probes_'18',_'19'_0513: SDMC_0_5_1_3 - SDMC_4_5_0_0 = 0
Igual_Probes_'18',_'19'_0532: SDMC_0_5_3_2 - SDMC_4_5_0_0 = 0
Igual_Probes_'18',_'19'_0552: SDMC_0_5_5_2 - SDMC_4_5_0_0 = 0
Igual_Probes_'18',_'19'_0571: SDMC_0_5_7_1 - SDMC_4_5_0_0 = 0
Igual_Probes_'18',_'19'_0613: SDMC_0_6_1_3 - SDMC_4_5_0_0 = 0
Igual_Probes_'18',_'19'_06131: SDMC_0_6_13_1 - SDMC_4_5_0_0 = 0
Igual_Probes_'18',_'19'_0652: SDMC_0_6_5_2 - SDMC_4_5_0_0 = 0
Igual_Probes_'18',_'19'_0692: SDMC_0_6_9_2 - SDMC_4_5_0_0 = 0
Igual_Probes_'18',_'19'_1512: SDMC_1_5_1_2 - SDMC_4_5_0_0 = 0
Igual_Probes_'18',_'19'_1531: SDMC_1_5_3_1 - SDMC_4_5_0_0 = 0
Igual_Probes_'18',_'19'_1612: SDMC_1_6_1_2 - SDMC_4_5_0_0 = 0
Igual_Probes_'18',_'19'_1651: SDMC_1_6_5_1 - SDMC_4_5_0_0 = 0
Igual_Probes_'18',_'19'_2511: SDMC_2_5_1_1 - SDMC_4_5_0_0 = 0
Igual_Probes_'18',_'19'_2611: SDMC_2_6_1_1 - SDMC_4_5_0_0 = 0
Igual_Probes_'18',_'19'_3513: SDMC_3_5_1_3 - SDMC_4_5_0_0 = 0
Igual_Probes_'18',_'19'_3532: SDMC_3_5_3_2 - SDMC_4_5_0_0 = 0
Igual_Probes_'18',_'19'_3552: SDMC_3_5_5_2 - SDMC_4_5_0_0 = 0
Igual_Probes_'18',_'19'_3571: SDMC_3_5_7_1 - SDMC_4_5_0_0 = 0
Igual_Probes_'18',_'19'_3613: SDMC_3_6_1_3 - SDMC_4_5_0_0 = 0
Igual_Probes_'18',_'19'_36131: SDMC_3_6_13_1 - SDMC_4_5_0_0 = 0
Igual_Probes_'18',_'19'_3652: SDMC_3_6_5_2 - SDMC_4_5_0_0 = 0
Igual_Probes_'18',_'19'_3692: SDMC_3_6_9_2 - SDMC_4_5_0_0 = 0
Igual_Probes_'18',_'19'_6711: - SDMC_4_5_0_0 + SDMC_6_7_1_1 = 0
Igual_Probes_'18',_'21'_0713: SDMC_0_7_1_3 - SDMC_4_7_0_0 = 0
Igual_Probes_'18',_'21'_0732: SDMC_0_7_3_2 - SDMC_4_7_0_0 = 0
Igual_Probes_'18',_'21'_0752: SDMC_0_7_5_2 - SDMC_4_7_0_0 = 0
Igual_Probes_'18',_'21'_0771: SDMC_0_7_7_1 - SDMC_4_7_0_0 = 0
Igual_Probes_'18',_'21'_1712: SDMC_1_7_1_2 - SDMC_4_7_0_0 = 0
Igual_Probes_'18',_'21'_1731: SDMC_1_7_3_1 - SDMC_4_7_0_0 = 0
Igual_Probes_'18',_'21'_2711: SDMC_2_7_1_1 - SDMC_4_7_0_0 = 0
Igual_Probes_'18',_'21'_3713: SDMC_3_7_1_3 - SDMC_4_7_0_0 = 0
Igual_Probes_'18',_'21'_3732: SDMC_3_7_3_2 - SDMC_4_7_0_0 = 0
Igual_Probes_'18',_'21'_3752: SDMC_3_7_5_2 - SDMC_4_7_0_0 = 0
Igual_Probes_'18',_'21'_3771: SDMC_3_7_7_1 - SDMC_4_7_0_0 = 0
Igual_Probes_'18',_'21'_5711: - SDMC_4_7_0_0 + SDMC_5_7_1_1 = 0
Igual_Probes_'18',_'21'_6712: - SDMC_4_7_0_0 + SDMC_6_7_1_2 = 0
Igual_Probes_'18',_'21'_6731: - SDMC_4_7_0_0 + SDMC_6_7_3_1 = 0
Igual_Probes_'19',_'18',_'21'_6721: - SDMC_5_7_0_0 + SDMC_6_7_2_1 = 0
Igual_Probes_'19',_'20'_06112: SDMC_0_6_11_2 - SDMC_5_6_0_0 = 0
Igual_Probes_'19',_'20'_06132: SDMC_0_6_13_2 - SDMC_5_6_0_0 = 0
Igual_Probes_'19',_'20'_0614: SDMC_0_6_1_4 - SDMC_5_6_0_0 = 0
Igual_Probes_'19',_'20'_06151: SDMC_0_6_15_1 - SDMC_5_6_0_0 = 0
Igual_Probes_'19',_'20'_0633: SDMC_0_6_3_3 - SDMC_5_6_0_0 = 0
Igual_Probes_'19',_'20'_0653: SDMC_0_6_5_3 - SDMC_5_6_0_0 = 0
Igual_Probes_'19',_'20'_0672: SDMC_0_6_7_2 - SDMC_5_6_0_0 = 0
Igual_Probes_'19',_'20'_0693: SDMC_0_6_9_3 - SDMC_5_6_0_0 = 0
Igual_Probes_'19',_'20'_1613: SDMC_1_6_1_3 - SDMC_5_6_0_0 = 0
Igual_Probes_'19',_'20'_1632: SDMC_1_6_3_2 - SDMC_5_6_0_0 = 0
Igual_Probes_'19',_'20'_1652: SDMC_1_6_5_2 - SDMC_5_6_0_0 = 0
Igual_Probes_'19',_'20'_1671: SDMC_1_6_7_1 - SDMC_5_6_0_0 = 0
Igual_Probes_'19',_'20'_2612: SDMC_2_6_1_2 - SDMC_5_6_0_0 = 0
Igual_Probes_'19',_'20'_2631: SDMC_2_6_3_1 - SDMC_5_6_0_0 = 0
Igual_Probes_'19',_'20'_36112: SDMC_3_6_11_2 - SDMC_5_6_0_0 = 0
Igual_Probes_'19',_'20'_36132: SDMC_3_6_13_2 - SDMC_5_6_0_0 = 0
Igual_Probes_'19',_'20'_3614: SDMC_3_6_1_4 - SDMC_5_6_0_0 = 0
Igual_Probes_'19',_'20'_36151: SDMC_3_6_15_1 - SDMC_5_6_0_0 = 0
Igual_Probes_'19',_'20'_3633: SDMC_3_6_3_3 - SDMC_5_6_0_0 = 0
Igual_Probes_'19',_'20'_3653: SDMC_3_6_5_3 - SDMC_5_6_0_0 = 0
Igual_Probes_'19',_'20'_3672: SDMC_3_6_7_2 - SDMC_5_6_0_0 = 0
Igual_Probes_'19',_'20'_3693: SDMC_3_6_9_3 - SDMC_5_6_0_0 = 0
Igual_Probes_'19',_'20'_4611: SDMC_4_6_1_1 - SDMC_5_6_0_0 = 0
Max_Probes_Router0: SDMC_0_1_0_0 + SDMC_0_2_0_0 + SDMC_0_3_0_0 + SDMC_0_4_0_0
 + SDMC_0_5_0_0 + SDMC_0_6_0_0 + SDMC_0_7_0_0 <= 3
Max_Probes_Router1: SDMC_1_0_0_0 + SDMC_1_2_0_0 + SDMC_1_3_0_0 + SDMC_1_4_0_0
 + SDMC_1_5_0_0 + SDMC_1_6_0_0 + SDMC_1_7_0_0 <= 9
Max_Probes_Router2: SDMC_2_0_0_0 + SDMC_2_1_0_0 + SDMC_2_3_0_0 + SDMC_2_4_0_0
 + SDMC_2_5_0_0 + SDMC_2_6_0_0 + SDMC_2_7_0_0 <= 6
Max_Probes_Router3: SDMC_3_0_0_0 + SDMC_3_1_0_0 + SDMC_3_2_0_0 + SDMC_3_4_0_0
 + SDMC_3_5_0_0 + SDMC_3_6_0_0 + SDMC_3_7_0_0 <= 3
Max_Probes_Router4: SDMC_4_0_0_0 + SDMC_4_1_0_0 + SDMC_4_2_0_0 + SDMC_4_3_0_0
 + SDMC_4_5_0_0 + SDMC_4_6_0_0 + SDMC_4_7_0_0 <= 9
Max_Probes_Router5: SDMC_5_0_0_0 + SDMC_5_1_0_0 + SDMC_5_2_0_0 + SDMC_5_3_0_0
 + SDMC_5_4_0_0 + SDMC_5_6_0_0 + SDMC_5_7_0_0 <= 6
Max_Probes_Router6: SDMC_6_0_0_0 + SDMC_6_1_0_0 + SDMC_6_2_0_0 + SDMC_6_3_0_0
 + SDMC_6_4_0_0 + SDMC_6_5_0_0 + SDMC_6_7_0_0 <= 3
Max_Probes_Router7: SDMC_7_0_0_0 + SDMC_7_1_0_0 + SDMC_7_2_0_0 + SDMC_7_3_0_0
 + SDMC_7_4_0_0 + SDMC_7_5_0_0 + SDMC_7_6_0_0 <= 3
Sonda020: SDMC_0_2_0_0 = 1
Sonda021: SDMC_0_2_1_1 = 1
Sonda030: SDMC_0_3_0_0 = 1
Sonda031: SDMC_0_3_1_1 = 1
Sonda040: SDMC_0_4_0_0 = 1
Sonda041: SDMC_0_4_1_1 + SDMC_0_4_1_2 = 2
Sonda042: SDMC_0_4_2_1 = 1
Sonda043: SDMC_0_4_3_0 + SDMC_0_4_3_1 = 2
Sonda050: SDMC_0_5_0_0 = 1
Sonda051: SDMC_0_5_1_1 + SDMC_0_5_1_2 + SDMC_0_5_1_3 = 3
Sonda052: SDMC_0_5_2_1 + SDMC_0_5_2_2 = 2
Sonda053: SDMC_0_5_3_1 + SDMC_0_5_3_2 = 2
Sonda054: SDMC_0_5_4_1 = 1
Sonda055: SDMC_0_5_5_0 + SDMC_0_5_5_1 + SDMC_0_5_5_2 = 3
Sonda056: SDMC_0_5_6_0 + SDMC_0_5_6_1 = 2
Sonda057: SDMC_0_5_7_0 + SDMC_0_5_7_1 = 2
Sonda060: SDMC_0_6_0_0 = 1
Sonda061: SDMC_0_6_1_1 + SDMC_0_6_1_2 + SDMC_0_6_1_3 + SDMC_0_6_1_4 = 4
Sonda0610: SDMC_0_6_10_0 + SDMC_0_6_10_1 + SDMC_0_6_10_2 = 3
Sonda0611: SDMC_0_6_11_0 + SDMC_0_6_11_1 + SDMC_0_6_11_2 = 3
Sonda0612: SDMC_0_6_12_0 + SDMC_0_6_12_1 = 2
Sonda0613: SDMC_0_6_13_0 + SDMC_0_6_13_1 + SDMC_0_6_13_2 = 3
Sonda0614: SDMC_0_6_14_0 + SDMC_0_6_14_1 = 2
Sonda0615: SDMC_0_6_15_0 + SDMC_0_6_15_1 = 2
Sonda062: SDMC_0_6_2_1 + SDMC_0_6_2_2 + SDMC_0_6_2_3 = 3
Sonda063: SDMC_0_6_3_1 + SDMC_0_6_3_2 + SDMC_0_6_3_3 = 3
Sonda064: SDMC_0_6_4_1 + SDMC_0_6_4_2 = 2
Sonda065: SDMC_0_6_5_1 + SDMC_0_6_5_2 + SDMC_0_6_5_3 = 3
Sonda066: SDMC_0_6_6_1 + SDMC_0_6_6_2 = 2
Sonda067: SDMC_0_6_7_1 + SDMC_0_6_7_2 = 2
Sonda068: SDMC_0_6_8_1 = 1
Sonda069: SDMC_0_6_9_0 + SDMC_0_6_9_1 + SDMC_0_6_9_2 + SDMC_0_6_9_3 = 4
Sonda070: SDMC_0_7_0_0 = 1
Sonda071: SDMC_0_7_1_1 + SDMC_0_7_1_2 + SDMC_0_7_1_3 = 3
Sonda072: SDMC_0_7_2_1 + SDMC_0_7_2_2 = 2
Sonda073: SDMC_0_7_3_1 + SDMC_0_7_3_2 = 2
Sonda074: SDMC_0_7_4_1 = 1
Sonda075: SDMC_0_7_5_0 + SDMC_0_7_5_1 + SDMC_0_7_5_2 = 3
Sonda076: SDMC_0_7_6_0 + SDMC_0_7_6_1 = 2
Sonda077: SDMC_0_7_7_0 + SDMC_0_7_7_1 = 2
Sonda120: SDMC_1_2_0_0 = 1
Sonda130: SDMC_1_3_0_0 = 1
Sonda140: SDMC_1_4_0_0 = 1
Sonda141: SDMC_1_4_1_0 + SDMC_1_4_1_1 = 2
Sonda150: SDMC_1_5_0_0 = 1
Sonda151: SDMC_1_5_1_0 + SDMC_1_5_1_1 + SDMC_1_5_1_2 = 3
Sonda152: SDMC_1_5_2_0 + SDMC_1_5_2_1 = 2
Sonda153: SDMC_1_5_3_0 + SDMC_1_5_3_1 = 2
Sonda160: SDMC_1_6_0_0 = 1
Sonda161: SDMC_1_6_1_0 + SDMC_1_6_1_1 + SDMC_1_6_1_2 + SDMC_1_6_1_3 = 4
Sonda162: SDMC_1_6_2_0 + SDMC_1_6_2_1 + SDMC_1_6_2_2 = 3
Sonda163: SDMC_1_6_3_0 + SDMC_1_6_3_1 + SDMC_1_6_3_2 = 3
Sonda164: SDMC_1_6_4_0 + SDMC_1_6_4_1 = 2
Sonda165: SDMC_1_6_5_0 + SDMC_1_6_5_1 + SDMC_1_6_5_2 = 3
Sonda166: SDMC_1_6_6_0 + SDMC_1_6_6_1 = 2
Sonda167: SDMC_1_6_7_0 + SDMC_1_6_7_1 = 2
Sonda170: SDMC_1_7_0_0 = 1
Sonda171: SDMC_1_7_1_0 + SDMC_1_7_1_1 + SDMC_1_7_1_2 = 3
Sonda172: SDMC_1_7_2_0 + SDMC_1_7_2_1 = 2
Sonda173: SDMC_1_7_3_0 + SDMC_1_7_3_1 = 2
Sonda230: SDMC_2_3_0_0 = 1
Sonda231: SDMC_2_3_1_0 + SDMC_2_3_1_1 = 2
Sonda240: SDMC_2_4_0_0 = 1
Sonda250: SDMC_2_5_0_0 = 1
Sonda251: SDMC_2_5_1_0 + SDMC_2_5_1_1 = 2
Sonda260: SDMC_2_6_0_0 = 1
Sonda261: SDMC_2_6_1_0 + SDMC_2_6_1_1 + SDMC_2_6_1_2 = 3
Sonda262: SDMC_2_6_2_0 + SDMC_2_6_2_1 = 2
Sonda263: SDMC_2_6_3_0 + SDMC_2_6_3_1 = 2
Sonda270: SDMC_2_7_0_0 = 1
Sonda271: SDMC_2_7_1_0 + SDMC_2_7_1_1 = 2
Sonda340: SDMC_3_4_0_0 = 1
Sonda341: SDMC_3_4_1_0 + SDMC_3_4_1_1 + SDMC_3_4_1_2 = 3
Sonda342: SDMC_3_4_2_0 + SDMC_3_4_2_1 = 2
Sonda343: SDMC_3_4_3_0 + SDMC_3_4_3_1 = 2
Sonda350: SDMC_3_5_0_0 = 1
Sonda351: SDMC_3_5_1_0 + SDMC_3_5_1_1 + SDMC_3_5_1_2 + SDMC_3_5_1_3 = 4
Sonda352: SDMC_3_5_2_0 + SDMC_3_5_2_1 + SDMC_3_5_2_2 = 3
Sonda353: SDMC_3_5_3_0 + SDMC_3_5_3_1 + SDMC_3_5_3_2 = 3
Sonda354: SDMC_3_5_4_0 + SDMC_3_5_4_1 = 2
Sonda355: SDMC_3_5_5_0 + SDMC_3_5_5_1 + SDMC_3_5_5_2 = 3
Sonda356: SDMC_3_5_6_0 + SDMC_3_5_6_1 = 2
Sonda357: SDMC_3_5_7_0 + SDMC_3_5_7_1 = 2
Sonda360: SDMC_3_6_0_0 = 1
Sonda361: SDMC_3_6_1_0 + SDMC_3_6_1_1 + SDMC_3_6_1_2 + SDMC_3_6_1_3
 + SDMC_3_6_1_4 = 5
Sonda3610: SDMC_3_6_10_0 + SDMC_3_6_10_1 + SDMC_3_6_10_2 = 3
Sonda3611: SDMC_3_6_11_0 + SDMC_3_6_11_1 + SDMC_3_6_11_2 = 3
Sonda3612: SDMC_3_6_12_0 + SDMC_3_6_12_1 = 2
Sonda3613: SDMC_3_6_13_0 + SDMC_3_6_13_1 + SDMC_3_6_13_2 = 3
Sonda3614: SDMC_3_6_14_0 + SDMC_3_6_14_1 = 2
Sonda3615: SDMC_3_6_15_0 + SDMC_3_6_15_1 = 2
Sonda362: SDMC_3_6_2_0 + SDMC_3_6_2_1 + SDMC_3_6_2_2 + SDMC_3_6_2_3 = 4
Sonda363: SDMC_3_6_3_0 + SDMC_3_6_3_1 + SDMC_3_6_3_2 + SDMC_3_6_3_3 = 4
Sonda364: SDMC_3_6_4_0 + SDMC_3_6_4_1 + SDMC_3_6_4_2 = 3
Sonda365: SDMC_3_6_5_0 + SDMC_3_6_5_1 + SDMC_3_6_5_2 + SDMC_3_6_5_3 = 4
Sonda366: SDMC_3_6_6_0 + SDMC_3_6_6_1 + SDMC_3_6_6_2 = 3
Sonda367: SDMC_3_6_7_0 + SDMC_3_6_7_1 + SDMC_3_6_7_2 = 3
Sonda368: SDMC_3_6_8_0 + SDMC_3_6_8_1 = 2
Sonda369: SDMC_3_6_9_0 + SDMC_3_6_9_1 + SDMC_3_6_9_2 + SDMC_3_6_9_3 = 4
Sonda370: SDMC_3_7_0_0 = 1
Sonda371: SDMC_3_7_1_0 + SDMC_3_7_1_1 + SDMC_3_7_1_2 + SDMC_3_7_1_3 = 4
Sonda372: SDMC_3_7_2_0 + SDMC_3_7_2_1 + SDMC_3_7_2_2 = 3
Sonda373: SDMC_3_7_3_0 + SDMC_3_7_3_1 + SDMC_3_7_3_2 = 3
Sonda374: SDMC_3_7_4_0 + SDMC_3_7_4_1 = 2
Sonda375: SDMC_3_7_5_0 + SDMC_3_7_5_1 + SDMC_3_7_5_2 = 3
Sonda376: SDMC_3_7_6_0 + SDMC_3_7_6_1 = 2
Sonda377: SDMC_3_7_7_0 + SDMC_3_7_7_1 = 2
Sonda450: SDMC_4_5_0_0 = 1
Sonda460: SDMC_4_6_0_0 = 1
Sonda461: SDMC_4_6_1_0 + SDMC_4_6_1_1 = 2
Sonda470: SDMC_4_7_0_0 = 1
Sonda560: SDMC_5_6_0_0 = 1
Sonda570: SDMC_5_7_0_0 = 1
Sonda571: SDMC_5_7_1_0 + SDMC_5_7_1_1 = 2
Sonda670: SDMC_6_7_0_0 = 1
Sonda671: SDMC_6_7_1_0 + SDMC_6_7_1_1 + SDMC_6_7_1_2 = 3
Sonda672: SDMC_6_7_2_0 + SDMC_6_7_2_1 = 2
Sonda673: SDMC_6_7_3_0 + SDMC_6_7_3_1 = 2
Binaries
SDMC_0_1_0_0
SDMC_0_2_0_0
SDMC_0_2_1_0
SDMC_0_2_1_1
SDMC_0_3_0_0
SDMC_0_3_1_0
SDMC_0_3_1_1
SDMC_0_4_0_0
SDMC_0_4_1_0
SDMC_0_4_1_1
SDMC_0_4_1_2
SDMC_0_4_2_0
SDMC_0_4_2_1
SDMC_0_4_3_0
SDMC_0_4_3_1
SDMC_0_5_0_0
SDMC_0_5_1_0
SDMC_0_5_1_1
SDMC_0_5_1_2
SDMC_0_5_1_3
SDMC_0_5_2_0
SDMC_0_5_2_1
SDMC_0_5_2_2
SDMC_0_5_3_0
SDMC_0_5_3_1
SDMC_0_5_3_2
SDMC_0_5_4_0
SDMC_0_5_4_1
SDMC_0_5_5_0
SDMC_0_5_5_1
SDMC_0_5_5_2
SDMC_0_5_6_0
SDMC_0_5_6_1
SDMC_0_5_7_0
SDMC_0_5_7_1
SDMC_0_6_0_0
SDMC_0_6_10_0
SDMC_0_6_10_1
SDMC_0_6_10_2
SDMC_0_6_11_0
SDMC_0_6_11_1
SDMC_0_6_11_2
SDMC_0_6_12_0
SDMC_0_6_12_1
SDMC_0_6_13_0
SDMC_0_6_13_1
SDMC_0_6_13_2
SDMC_0_6_14_0
SDMC_0_6_14_1
SDMC_0_6_15_0
SDMC_0_6_15_1
SDMC_0_6_1_0
SDMC_0_6_1_1
SDMC_0_6_1_2
SDMC_0_6_1_3
SDMC_0_6_1_4
SDMC_0_6_2_0
SDMC_0_6_2_1
SDMC_0_6_2_2
SDMC_0_6_2_3
SDMC_0_6_3_0
SDMC_0_6_3_1
SDMC_0_6_3_2
SDMC_0_6_3_3
SDMC_0_6_4_0
SDMC_0_6_4_1
SDMC_0_6_4_2
SDMC_0_6_5_0
SDMC_0_6_5_1
SDMC_0_6_5_2
SDMC_0_6_5_3
SDMC_0_6_6_0
SDMC_0_6_6_1
SDMC_0_6_6_2
SDMC_0_6_7_0
SDMC_0_6_7_1
SDMC_0_6_7_2
SDMC_0_6_8_0
SDMC_0_6_8_1
SDMC_0_6_9_0
SDMC_0_6_9_1
SDMC_0_6_9_2
SDMC_0_6_9_3
SDMC_0_7_0_0
SDMC_0_7_1_0
SDMC_0_7_1_1
SDMC_0_7_1_2
SDMC_0_7_1_3
SDMC_0_7_2_0
SDMC_0_7_2_1
SDMC_0_7_2_2
SDMC_0_7_3_0
SDMC_0_7_3_1
SDMC_0_7_3_2
SDMC_0_7_4_0
SDMC_0_7_4_1
SDMC_0_7_5_0
SDMC_0_7_5_1
SDMC_0_7_5_2
SDMC_0_7_6_0
SDMC_0_7_6_1
SDMC_0_7_7_0
SDMC_0_7_7_1
SDMC_1_0_0_0
SDMC_1_2_0_0
SDMC_1_3_0_0
SDMC_1_4_0_0
SDMC_1_4_1_0
SDMC_1_4_1_1
SDMC_1_5_0_0
SDMC_1_5_1_0
SDMC_1_5_1_1
SDMC_1_5_1_2
SDMC_1_5_2_0
SDMC_1_5_2_1
SDMC_1_5_3_0
SDMC_1_5_3_1
SDMC_1_6_0_0
SDMC_1_6_1_0
SDMC_1_6_1_1
SDMC_1_6_1_2
SDMC_1_6_1_3
SDMC_1_6_2_0
SDMC_1_6_2_1
SDMC_1_6_2_2
SDMC_1_6_3_0
SDMC_1_6_3_1
SDMC_1_6_3_2
SDMC_1_6_4_0
SDMC_1_6_4_1
SDMC_1_6_5_0
SDMC_1_6_5_1
SDMC_1_6_5_2
SDMC_1_6_6_0
SDMC_1_6_6_1
SDMC_1_6_7_0
SDMC_1_6_7_1
SDMC_1_7_0_0
SDMC_1_7_1_0
SDMC_1_7_1_1
SDMC_1_7_1_2
SDMC_1_7_2_0
SDMC_1_7_2_1
SDMC_1_7_3_0
SDMC_1_7_3_1
SDMC_2_0_0_0
SDMC_2_1_0_0
SDMC_2_3_0_0
SDMC_2_3_1_0
SDMC_2_3_1_1
SDMC_2_4_0_0
SDMC_2_5_0_0
SDMC_2_5_1_0
SDMC_2_5_1_1
SDMC_2_6_0_0
SDMC_2_6_1_0
SDMC_2_6_1_1
SDMC_2_6_1_2
SDMC_2_6_2_0
SDMC_2_6_2_1
SDMC_2_6_3_0
SDMC_2_6_3_1
SDMC_2_7_0_0
SDMC_2_7_1_0
SDMC_2_7_1_1
SDMC_3_0_0_0
SDMC_3_1_0_0
SDMC_3_2_0_0
SDMC_3_4_0_0
SDMC_3_4_1_0
SDMC_3_4_1_1
SDMC_3_4_1_2
SDMC_3_4_2_0
SDMC_3_4_2_1
SDMC_3_4_3_0
SDMC_3_4_3_1
SDMC_3_5_0_0
SDMC_3_5_1_0
SDMC_3_5_1_1
SDMC_3_5_1_2
SDMC_3_5_1_3
SDMC_3_5_2_0
SDMC_3_5_2_1
SDMC_3_5_2_2
SDMC_3_5_3_0
SDMC_3_5_3_1
SDMC_3_5_3_2
SDMC_3_5_4_0
SDMC_3_5_4_1
SDMC_3_5_5_0
SDMC_3_5_5_1
SDMC_3_5_5_2
SDMC_3_5_6_0
SDMC_3_5_6_1
SDMC_3_5_7_0
SDMC_3_5_7_1
SDMC_3_6_0_0
SDMC_3_6_10_0
SDMC_3_6_10_1
SDMC_3_6_10_2
SDMC_3_6_11_0
SDMC_3_6_11_1
SDMC_3_6_11_2
SDMC_3_6_12_0
SDMC_3_6_12_1
SDMC_3_6_13_0
SDMC_3_6_13_1
SDMC_3_6_13_2
SDMC_3_6_14_0
SDMC_3_6_14_1
SDMC_3_6_15_0
SDMC_3_6_15_1
SDMC_3_6_1_0
SDMC_3_6_1_1
SDMC_3_6_1_2
SDMC_3_6_1_3
SDMC_3_6_1_4
SDMC_3_6_2_0
SDMC_3_6_2_1
SDMC_3_6_2_2
SDMC_3_6_2_3
SDMC_3_6_3_0
SDMC_3_6_3_1
SDMC_3_6_3_2
SDMC_3_6_3_3
SDMC_3_6_4_0
SDMC_3_6_4_1
SDMC_3_6_4_2
SDMC_3_6_5_0
SDMC_3_6_5_1
SDMC_3_6_5_2
SDMC_3_6_5_3
SDMC_3_6_6_0
SDMC_3_6_6_1
SDMC_3_6_6_2
SDMC_3_6_7_0
SDMC_3_6_7_1
SDMC_3_6_7_2
SDMC_3_6_8_0
SDMC_3_6_8_1
SDMC_3_6_9_0
SDMC_3_6_9_1
SDMC_3_6_9_2
SDMC_3_6_9_3
SDMC_3_7_0_0
SDMC_3_7_1_0
SDMC_3_7_1_1
SDMC_3_7_1_2
SDMC_3_7_1_3
SDMC_3_7_2_0
SDMC_3_7_2_1
SDMC_3_7_2_2
SDMC_3_7_3_0
SDMC_3_7_3_1
SDMC_3_7_3_2
SDMC_3_7_4_0
SDMC_3_7_4_1
SDMC_3_7_5_0
SDMC_3_7_5_1
SDMC_3_7_5_2
SDMC_3_7_6_0
SDMC_3_7_6_1
SDMC_3_7_7_0
SDMC_3_7_7_1
SDMC_4_0_0_0
SDMC_4_1_0_0
SDMC_4_2_0_0
SDMC_4_3_0_0
SDMC_4_5_0_0
SDMC_4_6_0_0
SDMC_4_6_1_0
SDMC_4_6_1_1
SDMC_4_7_0_0
SDMC_5_0_0_0
SDMC_5_1_0_0
SDMC_5_2_0_0
SDMC_5_3_0_0
SDMC_5_4_0_0
SDMC_5_6_0_0
SDMC_5_7_0_0
SDMC_5_7_1_0
SDMC_5_7_1_1
SDMC_6_0_0_0
SDMC_6_1_0_0
SDMC_6_2_0_0
SDMC_6_3_0_0
SDMC_6_4_0_0
SDMC_6_5_0_0
SDMC_6_7_0_0
SDMC_6_7_1_0
SDMC_6_7_1_1
SDMC_6_7_1_2
SDMC_6_7_2_0
SDMC_6_7_2_1
SDMC_6_7_3_0
SDMC_6_7_3_1
SDMC_7_0_0_0
SDMC_7_1_0_0
SDMC_7_2_0_0
SDMC_7_3_0_0
SDMC_7_4_0_0
SDMC_7_5_0_0
SDMC_7_6_0_0
End
